NAME: eil101
COMMENT: Tabu Search - tabusSize: 0.3 - neighborSize: 3
DIMENSION: 101
DISTANCE: 641.0
EXECUTION_TIME: 1.2
TOUR_SECTION: 
29 79 3 77 76 68 80 12 26 28 53 101 27 69 1 50 33 81 78 34 35 65 66 71 9 51 20 30 70 31 88 7 82 48 19 11 62 10 32 90 63 64 49 36 47 46 8 45 17 84 5 60 83 18 52 89 6 96 99 59 93 85 91 61 16 86 44 38 14 43 15 57 2 87 42 100 37 98 92 97 95 94 13 58 40 21 73 72 74 41 22 75 56 23 67 39 25 55 4 54 24 
EOF